#Mass
mass 1 71.080000
mass 2 156.200000
mass 3 114.100000
mass 4 115.100000
mass 5 103.100000
mass 6 128.100000
mass 7 129.100000
mass 8 57.050000
mass 9 137.100000
mass 10 113.200000
mass 11 113.200000
mass 12 128.200000
mass 13 131.200000
mass 14 147.200000
mass 15 97.120000
mass 16 87.080000
mass 17 101.100000
mass 18 186.200000
mass 19 163.200000
mass 20 99.070000
mass 21 1500.000000

#Pair Coeff
pair_coeff 1 1 ljlambda 0.200000 5.040000 0.522942 20.160000 0.000000
pair_coeff 1 2 ljlambda 0.200000 5.800000 0.500883 23.200000 0.000000
pair_coeff 1 3 ljlambda 0.200000 5.360000 0.515589 21.440000 0.000000
pair_coeff 1 4 ljlambda 0.200000 5.310000 0.368530 21.240000 0.000000
pair_coeff 1 5 ljlambda 0.200000 5.260000 0.545001 21.040000 0.000000
pair_coeff 1 6 ljlambda 0.200000 5.530000 0.500883 22.120000 0.000000
pair_coeff 1 7 ljlambda 0.200000 5.480000 0.221471 21.920000 0.000000
pair_coeff 1 8 ljlambda 0.200000 4.770000 0.508236 19.080000 0.000000
pair_coeff 1 9 ljlambda 0.200000 5.560000 0.603825 22.240000 0.000000
pair_coeff 1 10 ljlambda 0.200000 5.610000 0.574413 22.440000 0.000000
pair_coeff 1 11 ljlambda 0.200000 5.610000 0.581766 22.440000 0.000000
pair_coeff 1 12 ljlambda 0.200000 5.700000 0.412648 22.800000 0.000000
pair_coeff 1 13 ljlambda 0.200000 5.610000 0.559706 22.440000 0.000000
pair_coeff 1 14 ljlambda 0.200000 5.700000 0.633236 22.800000 0.000000
pair_coeff 1 15 ljlambda 0.200000 5.300000 0.600883 21.200000 0.000000
pair_coeff 1 16 ljlambda 0.200000 5.110000 0.515589 20.440000 0.000000
pair_coeff 1 17 ljlambda 0.200000 5.330000 0.515589 21.320000 0.000000
pair_coeff 1 18 ljlambda 0.200000 5.910000 0.721471 23.640000 0.000000
pair_coeff 1 19 ljlambda 0.200000 5.750000 0.670001 23.000000 0.000000
pair_coeff 1 20 ljlambda 0.200000 5.450000 0.553825 21.800000 0.000000
pair_coeff 2 2 ljlambda 0.200000 6.560000 0.478824 26.240000 35.000000
pair_coeff 2 3 ljlambda 0.200000 6.120000 0.493530 24.480000 0.000000
pair_coeff 2 4 ljlambda 0.200000 6.070000 0.346471 24.280000 35.000000
pair_coeff 2 5 ljlambda 0.200000 6.020000 0.522942 24.080000 0.000000
pair_coeff 2 6 ljlambda 0.200000 6.290000 0.478824 25.160000 0.000000
pair_coeff 2 7 ljlambda 0.200000 6.240000 0.199412 24.960000 35.000000
pair_coeff 2 8 ljlambda 0.200000 5.530000 0.486177 22.120000 0.000000
pair_coeff 2 9 ljlambda 0.200000 6.320000 0.581766 25.280000 0.000000
pair_coeff 2 10 ljlambda 0.200000 6.370000 0.552354 25.480000 0.000000
pair_coeff 2 11 ljlambda 0.200000 6.370000 0.559706 25.480000 0.000000
pair_coeff 2 12 ljlambda 0.200000 6.460000 0.390589 25.840000 35.000000
pair_coeff 2 13 ljlambda 0.200000 6.370000 0.537648 25.480000 0.000000
pair_coeff 2 14 ljlambda 0.200000 6.460000 0.611177 25.840000 0.000000
pair_coeff 2 15 ljlambda 0.200000 6.060000 0.578824 24.240000 0.000000
pair_coeff 2 16 ljlambda 0.200000 5.870000 0.493530 23.480000 0.000000
pair_coeff 2 17 ljlambda 0.200000 6.090000 0.493530 24.360000 0.000000
pair_coeff 2 18 ljlambda 0.200000 6.670000 0.699412 26.680000 0.000000
pair_coeff 2 19 ljlambda 0.200000 6.510000 0.647942 26.040000 0.000000
pair_coeff 2 20 ljlambda 0.200000 6.210000 0.531766 24.840000 0.000000
pair_coeff 3 3 ljlambda 0.200000 5.680000 0.508236 22.720000 0.000000
pair_coeff 3 4 ljlambda 0.200000 5.630000 0.361177 22.520000 0.000000
pair_coeff 3 5 ljlambda 0.200000 5.580000 0.537648 22.320000 0.000000
pair_coeff 3 6 ljlambda 0.200000 5.850000 0.493530 23.400000 0.000000
pair_coeff 3 7 ljlambda 0.200000 5.800000 0.214118 23.200000 0.000000
pair_coeff 3 8 ljlambda 0.200000 5.090000 0.500883 20.360000 0.000000
pair_coeff 3 9 ljlambda 0.200000 5.880000 0.596472 23.520000 0.000000
pair_coeff 3 10 ljlambda 0.200000 5.930000 0.567060 23.720000 0.000000
pair_coeff 3 11 ljlambda 0.200000 5.930000 0.574413 23.720000 0.000000
pair_coeff 3 12 ljlambda 0.200000 6.020000 0.405295 24.080000 0.000000
pair_coeff 3 13 ljlambda 0.200000 5.930000 0.552354 23.720000 0.000000
pair_coeff 3 14 ljlambda 0.200000 6.020000 0.625883 24.080000 0.000000
pair_coeff 3 15 ljlambda 0.200000 5.620000 0.593530 22.480000 0.000000
pair_coeff 3 16 ljlambda 0.200000 5.430000 0.508236 21.720000 0.000000
pair_coeff 3 17 ljlambda 0.200000 5.650000 0.508236 22.600000 0.000000
pair_coeff 3 18 ljlambda 0.200000 6.230000 0.714118 24.920000 0.000000
pair_coeff 3 19 ljlambda 0.200000 6.070000 0.662648 24.280000 0.000000
pair_coeff 3 20 ljlambda 0.200000 5.770000 0.546472 23.080000 0.000000
pair_coeff 4 4 ljlambda 0.200000 5.580000 0.214119 22.320000 35.000000
pair_coeff 4 5 ljlambda 0.200000 5.530000 0.390589 22.120000 0.000000
pair_coeff 4 6 ljlambda 0.200000 5.800000 0.346471 23.200000 0.000000
pair_coeff 4 7 ljlambda 0.200000 5.750000 0.067060 23.000000 35.000000
pair_coeff 4 8 ljlambda 0.200000 5.040000 0.353824 20.160000 0.000000
pair_coeff 4 9 ljlambda 0.200000 5.830000 0.449413 23.320000 0.000000
pair_coeff 4 10 ljlambda 0.200000 5.880000 0.420001 23.520000 0.000000
pair_coeff 4 11 ljlambda 0.200000 5.880000 0.427354 23.520000 0.000000
pair_coeff 4 12 ljlambda 0.200000 5.970000 0.258237 23.880000 35.000000
pair_coeff 4 13 ljlambda 0.200000 5.880000 0.405295 23.520000 0.000000
pair_coeff 4 14 ljlambda 0.200000 5.970000 0.478825 23.880000 0.000000
pair_coeff 4 15 ljlambda 0.200000 5.570000 0.446471 22.280000 0.000000
pair_coeff 4 16 ljlambda 0.200000 5.380000 0.361177 21.520000 0.000000
pair_coeff 4 17 ljlambda 0.200000 5.600000 0.361177 22.400000 0.000000
pair_coeff 4 18 ljlambda 0.200000 6.180000 0.567060 24.720000 0.000000
pair_coeff 4 19 ljlambda 0.200000 6.020000 0.515589 24.080000 0.000000
pair_coeff 4 20 ljlambda 0.200000 5.720000 0.399413 22.880000 0.000000
pair_coeff 5 5 ljlambda 0.200000 5.480000 0.567060 21.920000 0.000000
pair_coeff 5 6 ljlambda 0.200000 5.750000 0.522942 23.000000 0.000000
pair_coeff 5 7 ljlambda 0.200000 5.700000 0.243530 22.800000 0.000000
pair_coeff 5 8 ljlambda 0.200000 4.990000 0.530295 19.960000 0.000000
pair_coeff 5 9 ljlambda 0.200000 5.780000 0.625884 23.120000 0.000000
pair_coeff 5 10 ljlambda 0.200000 5.830000 0.596472 23.320000 0.000000
pair_coeff 5 11 ljlambda 0.200000 5.830000 0.603825 23.320000 0.000000
pair_coeff 5 12 ljlambda 0.200000 5.920000 0.434707 23.680000 0.000000
pair_coeff 5 13 ljlambda 0.200000 5.830000 0.581766 23.320000 0.000000
pair_coeff 5 14 ljlambda 0.200000 5.920000 0.655295 23.680000 0.000000
pair_coeff 5 15 ljlambda 0.200000 5.520000 0.622942 22.080000 0.000000
pair_coeff 5 16 ljlambda 0.200000 5.330000 0.537648 21.320000 0.000000
pair_coeff 5 17 ljlambda 0.200000 5.550000 0.537648 22.200000 0.000000
pair_coeff 5 18 ljlambda 0.200000 6.130000 0.743530 24.520000 0.000000
pair_coeff 5 19 ljlambda 0.200000 5.970000 0.692060 23.880000 0.000000
pair_coeff 5 20 ljlambda 0.200000 5.670000 0.575884 22.680000 0.000000
pair_coeff 6 6 ljlambda 0.200000 6.020000 0.478824 24.080000 0.000000
pair_coeff 6 7 ljlambda 0.200000 5.970000 0.199412 23.880000 0.000000
pair_coeff 6 8 ljlambda 0.200000 5.260000 0.486177 21.040000 0.000000
pair_coeff 6 9 ljlambda 0.200000 6.050000 0.581766 24.200000 0.000000
pair_coeff 6 10 ljlambda 0.200000 6.100000 0.552354 24.400000 0.000000
pair_coeff 6 11 ljlambda 0.200000 6.100000 0.559706 24.400000 0.000000
pair_coeff 6 12 ljlambda 0.200000 6.190000 0.390589 24.760000 0.000000
pair_coeff 6 13 ljlambda 0.200000 6.100000 0.537648 24.400000 0.000000
pair_coeff 6 14 ljlambda 0.200000 6.190000 0.611177 24.760000 0.000000
pair_coeff 6 15 ljlambda 0.200000 5.790000 0.578824 23.160000 0.000000
pair_coeff 6 16 ljlambda 0.200000 5.600000 0.493530 22.400000 0.000000
pair_coeff 6 17 ljlambda 0.200000 5.820000 0.493530 23.280000 0.000000
pair_coeff 6 18 ljlambda 0.200000 6.400000 0.699412 25.600000 0.000000
pair_coeff 6 19 ljlambda 0.200000 6.240000 0.647942 24.960000 0.000000
pair_coeff 6 20 ljlambda 0.200000 5.940000 0.531766 23.760000 0.000000
pair_coeff 7 7 ljlambda 0.200000 5.920000 -0.080000 23.680000 35.000000
pair_coeff 7 8 ljlambda 0.200000 5.210000 0.206765 20.840000 0.000000
pair_coeff 7 9 ljlambda 0.200000 6.000000 0.302353 24.000000 0.000000
pair_coeff 7 10 ljlambda 0.200000 6.050000 0.272942 24.200000 0.000000
pair_coeff 7 11 ljlambda 0.200000 6.050000 0.280295 24.200000 0.000000
pair_coeff 7 12 ljlambda 0.200000 6.140000 0.111177 24.560000 35.000000
pair_coeff 7 13 ljlambda 0.200000 6.050000 0.258236 24.200000 0.000000
pair_coeff 7 14 ljlambda 0.200000 6.140000 0.331765 24.560000 0.000000
pair_coeff 7 15 ljlambda 0.200000 5.740000 0.299412 22.960000 0.000000
pair_coeff 7 16 ljlambda 0.200000 5.550000 0.214118 22.200000 0.000000
pair_coeff 7 17 ljlambda 0.200000 5.770000 0.214118 23.080000 0.000000
pair_coeff 7 18 ljlambda 0.200000 6.350000 0.420000 25.400000 0.000000
pair_coeff 7 19 ljlambda 0.200000 6.190000 0.368530 24.760000 0.000000
pair_coeff 7 20 ljlambda 0.200000 5.890000 0.252354 23.560000 0.000000
pair_coeff 8 8 ljlambda 0.200000 4.500000 0.493530 18.000000 0.000000
pair_coeff 8 9 ljlambda 0.200000 5.290000 0.589118 21.160000 0.000000
pair_coeff 8 10 ljlambda 0.200000 5.340000 0.559706 21.360000 0.000000
pair_coeff 8 11 ljlambda 0.200000 5.340000 0.567060 21.360000 0.000000
pair_coeff 8 12 ljlambda 0.200000 5.430000 0.397942 21.720000 0.000000
pair_coeff 8 13 ljlambda 0.200000 5.340000 0.545001 21.360000 0.000000
pair_coeff 8 14 ljlambda 0.200000 5.430000 0.618530 21.720000 0.000000
pair_coeff 8 15 ljlambda 0.200000 5.030000 0.586177 20.120000 0.000000
pair_coeff 8 16 ljlambda 0.200000 4.840000 0.500883 19.360000 0.000000
pair_coeff 8 17 ljlambda 0.200000 5.060000 0.500883 20.240000 0.000000
pair_coeff 8 18 ljlambda 0.200000 5.640000 0.706765 22.560000 0.000000
pair_coeff 8 19 ljlambda 0.200000 5.480000 0.655295 21.920000 0.000000
pair_coeff 8 20 ljlambda 0.200000 5.180000 0.539119 20.720000 0.000000
pair_coeff 9 9 ljlambda 0.200000 6.080000 0.684707 24.320000 0.000000
pair_coeff 9 10 ljlambda 0.200000 6.130000 0.655295 24.520000 0.000000
pair_coeff 9 11 ljlambda 0.200000 6.130000 0.662648 24.520000 0.000000
pair_coeff 9 12 ljlambda 0.200000 6.220000 0.493531 24.880000 0.000000
pair_coeff 9 13 ljlambda 0.200000 6.130000 0.640589 24.520000 0.000000
pair_coeff 9 14 ljlambda 0.200000 6.220000 0.714118 24.880000 0.000000
pair_coeff 9 15 ljlambda 0.200000 5.820000 0.681766 23.280000 0.000000
pair_coeff 9 16 ljlambda 0.200000 5.630000 0.596472 22.520000 0.000000
pair_coeff 9 17 ljlambda 0.200000 5.850000 0.596472 23.400000 0.000000
pair_coeff 9 18 ljlambda 0.200000 6.430000 0.802354 25.720000 0.000000
pair_coeff 9 19 ljlambda 0.200000 6.270000 0.750883 25.080000 0.000000
pair_coeff 9 20 ljlambda 0.200000 5.970000 0.634707 23.880000 0.000000
pair_coeff 10 10 ljlambda 0.200000 6.180000 0.625883 24.720000 0.000000
pair_coeff 10 11 ljlambda 0.200000 6.180000 0.633236 24.720000 0.000000
pair_coeff 10 12 ljlambda 0.200000 6.270000 0.464119 25.080000 0.000000
pair_coeff 10 13 ljlambda 0.200000 6.180000 0.611177 24.720000 0.000000
pair_coeff 10 14 ljlambda 0.200000 6.270000 0.684706 25.080000 0.000000
pair_coeff 10 15 ljlambda 0.200000 5.870000 0.652354 23.480000 0.000000
pair_coeff 10 16 ljlambda 0.200000 5.680000 0.567060 22.720000 0.000000
pair_coeff 10 17 ljlambda 0.200000 5.900000 0.567060 23.600000 0.000000
pair_coeff 10 18 ljlambda 0.200000 6.480000 0.772942 25.920000 0.000000
pair_coeff 10 19 ljlambda 0.200000 6.320000 0.721471 25.280000 0.000000
pair_coeff 10 20 ljlambda 0.200000 6.020000 0.605295 24.080000 0.000000
pair_coeff 11 11 ljlambda 0.200000 6.180000 0.640589 24.720000 0.000000
pair_coeff 11 12 ljlambda 0.200000 6.270000 0.471471 25.080000 0.000000
pair_coeff 11 13 ljlambda 0.200000 6.180000 0.618530 24.720000 0.000000
pair_coeff 11 14 ljlambda 0.200000 6.270000 0.692060 25.080000 0.000000
pair_coeff 11 15 ljlambda 0.200000 5.870000 0.659707 23.480000 0.000000
pair_coeff 11 16 ljlambda 0.200000 5.680000 0.574413 22.720000 0.000000
pair_coeff 11 17 ljlambda 0.200000 5.900000 0.574413 23.600000 0.000000
pair_coeff 11 18 ljlambda 0.200000 6.480000 0.780295 25.920000 0.000000
pair_coeff 11 19 ljlambda 0.200000 6.320000 0.728824 25.280000 0.000000
pair_coeff 11 20 ljlambda 0.200000 6.020000 0.612648 24.080000 0.000000
pair_coeff 12 12 ljlambda 0.200000 6.360000 0.302354 25.440000 35.000000
pair_coeff 12 13 ljlambda 0.200000 6.270000 0.449413 25.080000 0.000000
pair_coeff 12 14 ljlambda 0.200000 6.360000 0.522942 25.440000 0.000000
pair_coeff 12 15 ljlambda 0.200000 5.960000 0.490589 23.840000 0.000000
pair_coeff 12 16 ljlambda 0.200000 5.770000 0.405295 23.080000 0.000000
pair_coeff 12 17 ljlambda 0.200000 5.990000 0.405295 23.960000 0.000000
pair_coeff 12 18 ljlambda 0.200000 6.570000 0.611177 26.280000 0.000000
pair_coeff 12 19 ljlambda 0.200000 6.410000 0.559707 25.640000 0.000000
pair_coeff 12 20 ljlambda 0.200000 6.110000 0.443530 24.440000 0.000000
pair_coeff 13 13 ljlambda 0.200000 6.180000 0.596471 24.720000 0.000000
pair_coeff 13 14 ljlambda 0.200000 6.270000 0.670001 25.080000 0.000000
pair_coeff 13 15 ljlambda 0.200000 5.870000 0.637648 23.480000 0.000000
pair_coeff 13 16 ljlambda 0.200000 5.680000 0.552354 22.720000 0.000000
pair_coeff 13 17 ljlambda 0.200000 5.900000 0.552354 23.600000 0.000000
pair_coeff 13 18 ljlambda 0.200000 6.480000 0.758236 25.920000 0.000000
pair_coeff 13 19 ljlambda 0.200000 6.320000 0.706765 25.280000 0.000000
pair_coeff 13 20 ljlambda 0.200000 6.020000 0.590589 24.080000 0.000000
pair_coeff 14 14 ljlambda 0.200000 6.360000 0.743530 25.440000 0.000000
pair_coeff 14 15 ljlambda 0.200000 5.960000 0.711177 23.840000 0.000000
pair_coeff 14 16 ljlambda 0.200000 5.770000 0.625883 23.080000 0.000000
pair_coeff 14 17 ljlambda 0.200000 5.990000 0.625883 23.960000 0.000000
pair_coeff 14 18 ljlambda 0.200000 6.570000 0.831765 26.280000 0.000000
pair_coeff 14 19 ljlambda 0.200000 6.410000 0.780295 25.640000 0.000000
pair_coeff 14 20 ljlambda 0.200000 6.110000 0.664119 24.440000 0.000000
pair_coeff 15 15 ljlambda 0.200000 5.560000 0.678824 22.240000 0.000000
pair_coeff 15 16 ljlambda 0.200000 5.370000 0.593530 21.480000 0.000000
pair_coeff 15 17 ljlambda 0.200000 5.590000 0.593530 22.360000 0.000000
pair_coeff 15 18 ljlambda 0.200000 6.170000 0.799412 24.680000 0.000000
pair_coeff 15 19 ljlambda 0.200000 6.010000 0.747942 24.040000 0.000000
pair_coeff 15 20 ljlambda 0.200000 5.710000 0.631766 22.840000 0.000000
pair_coeff 16 16 ljlambda 0.200000 5.180000 0.508236 20.720000 0.000000
pair_coeff 16 17 ljlambda 0.200000 5.400000 0.508236 21.600000 0.000000
pair_coeff 16 18 ljlambda 0.200000 5.980000 0.714118 23.920000 0.000000
pair_coeff 16 19 ljlambda 0.200000 5.820000 0.662648 23.280000 0.000000
pair_coeff 16 20 ljlambda 0.200000 5.520000 0.546472 22.080000 0.000000
pair_coeff 17 17 ljlambda 0.200000 5.620000 0.508236 22.480000 0.000000
pair_coeff 17 18 ljlambda 0.200000 6.200000 0.714118 24.800000 0.000000
pair_coeff 17 19 ljlambda 0.200000 6.040000 0.662648 24.160000 0.000000
pair_coeff 17 20 ljlambda 0.200000 5.740000 0.546472 22.960000 0.000000
pair_coeff 18 18 ljlambda 0.200000 6.780000 0.920000 27.120000 0.000000
pair_coeff 18 19 ljlambda 0.200000 6.620000 0.868530 26.480000 0.000000
pair_coeff 18 20 ljlambda 0.200000 6.320000 0.752354 25.280000 0.000000
pair_coeff 19 19 ljlambda 0.200000 6.460000 0.817059 25.840000 0.000000
pair_coeff 19 20 ljlambda 0.200000 6.160000 0.700883 24.640000 0.000000
pair_coeff 20 20 ljlambda 0.200000 5.860000 0.584707 23.440000 0.000000
pair_coeff 1 21 lj/expand 0.200000 6.000000 3.910000 35.000000
pair_coeff 2 21 lj/expand 0.200000 6.000000 3.910000 35.000000
pair_coeff 3 21 lj/expand 0.200000 6.000000 3.910000 35.000000
pair_coeff 4 21 lj/expand 0.200000 6.000000 3.910000 35.000000
pair_coeff 5 21 lj/expand 0.200000 6.000000 3.910000 35.000000
pair_coeff 6 21 lj/expand 0.200000 6.000000 3.910000 35.000000
pair_coeff 7 21 lj/expand 0.200000 6.000000 3.910000 35.000000
pair_coeff 8 21 lj/expand 0.200000 6.000000 3.910000 35.000000
pair_coeff 9 21 lj/expand 0.200000 6.000000 3.910000 35.000000
pair_coeff 10 21 lj/expand 0.200000 6.000000 3.910000 35.000000
pair_coeff 11 21 lj/expand 0.200000 6.000000 3.910000 35.000000
pair_coeff 12 21 lj/expand 0.200000 6.000000 3.910000 35.000000
pair_coeff 13 21 lj/expand 0.200000 6.000000 3.910000 35.000000
pair_coeff 14 21 lj/expand 0.200000 6.000000 3.910000 35.000000
pair_coeff 15 21 lj/expand 0.200000 6.000000 3.910000 35.000000
pair_coeff 16 21 lj/expand 0.200000 6.000000 3.910000 35.000000
pair_coeff 17 21 lj/expand 0.200000 6.000000 3.910000 35.000000
pair_coeff 18 21 lj/expand 0.200000 6.000000 3.910000 35.000000
pair_coeff 19 21 lj/expand 0.200000 6.000000 3.910000 35.000000
pair_coeff 20 21 lj/expand 0.200000 6.000000 3.910000 35.000000
pair_coeff 21 21 lj/exclude 0.200000 6.000000 10.000000 35.000000
