#Mass

mass	1	71.080000
mass	2	156.20000
mass	3	114.10000
mass	4	115.10000
mass	5	103.10000
mass	6	128.10000
mass	7	129.10000
mass	8	57.050000
mass	9	137.10000
mass	10	113.20000
mass	11	113.20000
mass	12	128.20000
mass	13	131.20000
mass	14	147.20000
mass	15	97.120000
mass	16	87.080000
mass	17	101.10000
mass	18	186.20000
mass	19	163.20000
mass	20	99.070000
mass	21	1500.0000

#Bond Coeff

bond_coeff	1	10.000000	3.8200000

#Pair Coeff

pair_coeff	1	1	ljlambda	0.2000000	5.0400000	0.5229420	20.160000	0.0000000
pair_coeff	1	2	ljlambda	0.2000000	5.8000000	0.5008830	23.200000	0.0000000
pair_coeff	1	3	ljlambda	0.2000000	5.3600000	0.5155890	21.440000	0.0000000
pair_coeff	1	4	ljlambda	0.2000000	5.3100000	0.3685305	21.240000	0.0000000
pair_coeff	1	5	ljlambda	0.2000000	5.2600000	0.5450010	21.040000	0.0000000
pair_coeff	1	6	ljlambda	0.2000000	5.5300000	0.5008830	22.120000	0.0000000
pair_coeff	1	7	ljlambda	0.2000000	5.4800000	0.2214710	21.920000	0.0000000
pair_coeff	1	8	ljlambda	0.2000000	4.7700000	0.5082360	19.080000	0.0000000
pair_coeff	1	9	ljlambda	0.2000000	5.5600000	0.6038245	22.240000	0.0000000
pair_coeff	1	10	ljlambda	0.2000000	5.6100000	0.5744125	22.440000	0.0000000
pair_coeff	1	11	ljlambda	0.2000000	5.6100000	0.5817655	22.440000	0.0000000
pair_coeff	1	12	ljlambda	0.2000000	5.7000000	0.4126480	22.800000	0.0000000
pair_coeff	1	13	ljlambda	0.2000000	5.6100000	0.5597065	22.440000	0.0000000
pair_coeff	1	14	ljlambda	0.2000000	5.7000000	0.6332360	22.800000	0.0000000
pair_coeff	1	15	ljlambda	0.2000000	5.3000000	0.6008830	21.200000	0.0000000
pair_coeff	1	16	ljlambda	0.2000000	5.1100000	0.5155890	20.440000	0.0000000
pair_coeff	1	17	ljlambda	0.2000000	5.3300000	0.5155890	21.320000	0.0000000
pair_coeff	1	18	ljlambda	0.2000000	5.9100000	0.7214710	23.640000	0.0000000
pair_coeff	1	19	ljlambda	0.2000000	5.7500000	0.6700005	23.000000	0.0000000
pair_coeff	1	20	ljlambda	0.2000000	5.4500000	0.5538245	21.800000	0.0000000
pair_coeff	2	2	ljlambda	0.2000000	6.5600000	0.4788240	26.240000	35.000000
pair_coeff	2	3	ljlambda	0.2000000	6.1200000	0.4935300	24.480000	0.0000000
pair_coeff	2	4	ljlambda	0.2000000	6.0700000	0.3464715	24.280000	35.000000
pair_coeff	2	5	ljlambda	0.2000000	6.0200000	0.5229420	24.080000	0.0000000
pair_coeff	2	6	ljlambda	0.2000000	6.2900000	0.4788240	25.160000	0.0000000
pair_coeff	2	7	ljlambda	0.2000000	6.2400000	0.1994120	24.960000	35.000000
pair_coeff	2	8	ljlambda	0.2000000	5.5300000	0.4861770	22.120000	0.0000000
pair_coeff	2	9	ljlambda	0.2000000	6.3200000	0.5817655	25.280000	0.0000000
pair_coeff	2	10	ljlambda	0.2000000	6.3700000	0.5523535	25.480000	0.0000000
pair_coeff	2	11	ljlambda	0.2000000	6.3700000	0.5597065	25.480000	0.0000000
pair_coeff	2	12	ljlambda	0.2000000	6.4600000	0.3905890	25.840000	35.000000
pair_coeff	2	13	ljlambda	0.2000000	6.3700000	0.5376475	25.480000	0.0000000
pair_coeff	2	14	ljlambda	0.2000000	6.4600000	0.6111770	25.840000	0.0000000
pair_coeff	2	15	ljlambda	0.2000000	6.0600000	0.5788240	24.240000	0.0000000
pair_coeff	2	16	ljlambda	0.2000000	5.8700000	0.4935300	23.480000	0.0000000
pair_coeff	2	17	ljlambda	0.2000000	6.0900000	0.4935300	24.360000	0.0000000
pair_coeff	2	18	ljlambda	0.2000000	6.6700000	0.6994120	26.680000	0.0000000
pair_coeff	2	19	ljlambda	0.2000000	6.5100000	0.6479415	26.040000	0.0000000
pair_coeff	2	20	ljlambda	0.2000000	6.2100000	0.5317655	24.840000	0.0000000
pair_coeff	3	3	ljlambda	0.2000000	5.6800000	0.5082360	22.720000	0.0000000
pair_coeff	3	4	ljlambda	0.2000000	5.6300000	0.3611775	22.520000	0.0000000
pair_coeff	3	5	ljlambda	0.2000000	5.5800000	0.5376480	22.320000	0.0000000
pair_coeff	3	6	ljlambda	0.2000000	5.8500000	0.4935300	23.400000	0.0000000
pair_coeff	3	7	ljlambda	0.2000000	5.8000000	0.2141180	23.200000	0.0000000
pair_coeff	3	8	ljlambda	0.2000000	5.0900000	0.5008830	20.360000	0.0000000
pair_coeff	3	9	ljlambda	0.2000000	5.8800000	0.5964715	23.520000	0.0000000
pair_coeff	3	10	ljlambda	0.2000000	5.9300000	0.5670595	23.720000	0.0000000
pair_coeff	3	11	ljlambda	0.2000000	5.9300000	0.5744125	23.720000	0.0000000
pair_coeff	3	12	ljlambda	0.2000000	6.0200000	0.4052950	24.080000	0.0000000
pair_coeff	3	13	ljlambda	0.2000000	5.9300000	0.5523535	23.720000	0.0000000
pair_coeff	3	14	ljlambda	0.2000000	6.0200000	0.6258830	24.080000	0.0000000
pair_coeff	3	15	ljlambda	0.2000000	5.6200000	0.5935300	22.480000	0.0000000
pair_coeff	3	16	ljlambda	0.2000000	5.4300000	0.5082360	21.720000	0.0000000
pair_coeff	3	17	ljlambda	0.2000000	5.6500000	0.5082360	22.600000	0.0000000
pair_coeff	3	18	ljlambda	0.2000000	6.2300000	0.7141180	24.920000	0.0000000
pair_coeff	3	19	ljlambda	0.2000000	6.0700000	0.6626475	24.280000	0.0000000
pair_coeff	3	20	ljlambda	0.2000000	5.7700000	0.5464715	23.080000	0.0000000
pair_coeff	4	4	ljlambda	0.2000000	5.5800000	0.2141190	22.320000	35.000000
pair_coeff	4	5	ljlambda	0.2000000	5.5300000	0.3905895	22.120000	0.0000000
pair_coeff	4	6	ljlambda	0.2000000	5.8000000	0.3464715	23.200000	0.0000000
pair_coeff	4	7	ljlambda	0.2000000	5.7500000	0.0670595	23.000000	35.000000
pair_coeff	4	8	ljlambda	0.2000000	5.0400000	0.3538245	20.160000	0.0000000
pair_coeff	4	9	ljlambda	0.2000000	5.8300000	0.4494130	23.320000	0.0000000
pair_coeff	4	10	ljlambda	0.2000000	5.8800000	0.4200010	23.520000	0.0000000
pair_coeff	4	11	ljlambda	0.2000000	5.8800000	0.4273540	23.520000	0.0000000
pair_coeff	4	12	ljlambda	0.2000000	5.9700000	0.2582365	23.880000	35.000000
pair_coeff	4	13	ljlambda	0.2000000	5.8800000	0.4052950	23.520000	0.0000000
pair_coeff	4	14	ljlambda	0.2000000	5.9700000	0.4788245	23.880000	0.0000000
pair_coeff	4	15	ljlambda	0.2000000	5.5700000	0.4464715	22.280000	0.0000000
pair_coeff	4	16	ljlambda	0.2000000	5.3800000	0.3611775	21.520000	0.0000000
pair_coeff	4	17	ljlambda	0.2000000	5.6000000	0.3611775	22.400000	0.0000000
pair_coeff	4	18	ljlambda	0.2000000	6.1800000	0.5670595	24.720000	0.0000000
pair_coeff	4	19	ljlambda	0.2000000	6.0200000	0.5155890	24.080000	0.0000000
pair_coeff	4	20	ljlambda	0.2000000	5.7200000	0.3994130	22.880000	0.0000000
pair_coeff	5	5	ljlambda	0.2000000	5.4800000	0.5670600	21.920000	0.0000000
pair_coeff	5	6	ljlambda	0.2000000	5.7500000	0.5229420	23.000000	0.0000000
pair_coeff	5	7	ljlambda	0.2000000	5.7000000	0.2435300	22.800000	0.0000000
pair_coeff	5	8	ljlambda	0.2000000	4.9900000	0.5302950	19.960000	0.0000000
pair_coeff	5	9	ljlambda	0.2000000	5.7800000	0.6258835	23.120000	0.0000000
pair_coeff	5	10	ljlambda	0.2000000	5.8300000	0.5964715	23.320000	0.0000000
pair_coeff	5	11	ljlambda	0.2000000	5.8300000	0.6038245	23.320000	0.0000000
pair_coeff	5	12	ljlambda	0.2000000	5.9200000	0.4347070	23.680000	0.0000000
pair_coeff	5	13	ljlambda	0.2000000	5.8300000	0.5817655	23.320000	0.0000000
pair_coeff	5	14	ljlambda	0.2000000	5.9200000	0.6552950	23.680000	0.0000000
pair_coeff	5	15	ljlambda	0.2000000	5.5200000	0.6229420	22.080000	0.0000000
pair_coeff	5	16	ljlambda	0.2000000	5.3300000	0.5376480	21.320000	0.0000000
pair_coeff	5	17	ljlambda	0.2000000	5.5500000	0.5376480	22.200000	0.0000000
pair_coeff	5	18	ljlambda	0.2000000	6.1300000	0.7435300	24.520000	0.0000000
pair_coeff	5	19	ljlambda	0.2000000	5.9700000	0.6920595	23.880000	0.0000000
pair_coeff	5	20	ljlambda	0.2000000	5.6700000	0.5758835	22.680000	0.0000000
pair_coeff	6	6	ljlambda	0.2000000	6.0200000	0.4788240	24.080000	0.0000000
pair_coeff	6	7	ljlambda	0.2000000	5.9700000	0.1994120	23.880000	0.0000000
pair_coeff	6	8	ljlambda	0.2000000	5.2600000	0.4861770	21.040000	0.0000000
pair_coeff	6	9	ljlambda	0.2000000	6.0500000	0.5817655	24.200000	0.0000000
pair_coeff	6	10	ljlambda	0.2000000	6.1000000	0.5523535	24.400000	0.0000000
pair_coeff	6	11	ljlambda	0.2000000	6.1000000	0.5597065	24.400000	0.0000000
pair_coeff	6	12	ljlambda	0.2000000	6.1900000	0.3905890	24.760000	0.0000000
pair_coeff	6	13	ljlambda	0.2000000	6.1000000	0.5376475	24.400000	0.0000000
pair_coeff	6	14	ljlambda	0.2000000	6.1900000	0.6111770	24.760000	0.0000000
pair_coeff	6	15	ljlambda	0.2000000	5.7900000	0.5788240	23.160000	0.0000000
pair_coeff	6	16	ljlambda	0.2000000	5.6000000	0.4935300	22.400000	0.0000000
pair_coeff	6	17	ljlambda	0.2000000	5.8200000	0.4935300	23.280000	0.0000000
pair_coeff	6	18	ljlambda	0.2000000	6.4000000	0.6994120	25.600000	0.0000000
pair_coeff	6	19	ljlambda	0.2000000	6.2400000	0.6479415	24.960000	0.0000000
pair_coeff	6	20	ljlambda	0.2000000	5.9400000	0.5317655	23.760000	0.0000000
pair_coeff	7	7	ljlambda	0.2000000	5.9200000	-0.080000	23.680000	35.000000
pair_coeff	7	8	ljlambda	0.2000000	5.2100000	0.2067650	20.840000	0.0000000
pair_coeff	7	9	ljlambda	0.2000000	6.0000000	0.3023535	24.000000	0.0000000
pair_coeff	7	10	ljlambda	0.2000000	6.0500000	0.2729415	24.200000	0.0000000
pair_coeff	7	11	ljlambda	0.2000000	6.0500000	0.2802945	24.200000	0.0000000
pair_coeff	7	12	ljlambda	0.2000000	6.1400000	0.1111770	24.560000	35.000000
pair_coeff	7	13	ljlambda	0.2000000	6.0500000	0.2582355	24.200000	0.0000000
pair_coeff	7	14	ljlambda	0.2000000	6.1400000	0.3317650	24.560000	0.0000000
pair_coeff	7	15	ljlambda	0.2000000	5.7400000	0.2994120	22.960000	0.0000000
pair_coeff	7	16	ljlambda	0.2000000	5.5500000	0.2141180	22.200000	0.0000000
pair_coeff	7	17	ljlambda	0.2000000	5.7700000	0.2141180	23.080000	0.0000000
pair_coeff	7	18	ljlambda	0.2000000	6.3500000	0.4200000	25.400000	0.0000000
pair_coeff	7	19	ljlambda	0.2000000	6.1900000	0.3685295	24.760000	0.0000000
pair_coeff	7	20	ljlambda	0.2000000	5.8900000	0.2523535	23.560000	0.0000000
pair_coeff	8	8	ljlambda	0.2000000	4.5000000	0.4935300	18.000000	0.0000000
pair_coeff	8	9	ljlambda	0.2000000	5.2900000	0.5891185	21.160000	0.0000000
pair_coeff	8	10	ljlambda	0.2000000	5.3400000	0.5597065	21.360000	0.0000000
pair_coeff	8	11	ljlambda	0.2000000	5.3400000	0.5670595	21.360000	0.0000000
pair_coeff	8	12	ljlambda	0.2000000	5.4300000	0.3979420	21.720000	0.0000000
pair_coeff	8	13	ljlambda	0.2000000	5.3400000	0.5450005	21.360000	0.0000000
pair_coeff	8	14	ljlambda	0.2000000	5.4300000	0.6185300	21.720000	0.0000000
pair_coeff	8	15	ljlambda	0.2000000	5.0300000	0.5861770	20.120000	0.0000000
pair_coeff	8	16	ljlambda	0.2000000	4.8400000	0.5008830	19.360000	0.0000000
pair_coeff	8	17	ljlambda	0.2000000	5.0600000	0.5008830	20.240000	0.0000000
pair_coeff	8	18	ljlambda	0.2000000	5.6400000	0.7067650	22.560000	0.0000000
pair_coeff	8	19	ljlambda	0.2000000	5.4800000	0.6552945	21.920000	0.0000000
pair_coeff	8	20	ljlambda	0.2000000	5.1800000	0.5391185	20.720000	0.0000000
pair_coeff	9	9	ljlambda	0.2000000	6.0800000	0.6847070	24.320000	0.0000000
pair_coeff	9	10	ljlambda	0.2000000	6.1300000	0.6552950	24.520000	0.0000000
pair_coeff	9	11	ljlambda	0.2000000	6.1300000	0.6626480	24.520000	0.0000000
pair_coeff	9	12	ljlambda	0.2000000	6.2200000	0.4935305	24.880000	0.0000000
pair_coeff	9	13	ljlambda	0.2000000	6.1300000	0.6405890	24.520000	0.0000000
pair_coeff	9	14	ljlambda	0.2000000	6.2200000	0.7141185	24.880000	0.0000000
pair_coeff	9	15	ljlambda	0.2000000	5.8200000	0.6817655	23.280000	0.0000000
pair_coeff	9	16	ljlambda	0.2000000	5.6300000	0.5964715	22.520000	0.0000000
pair_coeff	9	17	ljlambda	0.2000000	5.8500000	0.5964715	23.400000	0.0000000
pair_coeff	9	18	ljlambda	0.2000000	6.4300000	0.8023535	25.720000	0.0000000
pair_coeff	9	19	ljlambda	0.2000000	6.2700000	0.7508830	25.080000	0.0000000
pair_coeff	9	20	ljlambda	0.2000000	5.9700000	0.6347070	23.880000	0.0000000
pair_coeff	10	10	ljlambda	0.2000000	6.1800000	0.6258830	24.720000	0.0000000
pair_coeff	10	11	ljlambda	0.2000000	6.1800000	0.6332360	24.720000	0.0000000
pair_coeff	10	12	ljlambda	0.2000000	6.2700000	0.4641185	25.080000	0.0000000
pair_coeff	10	13	ljlambda	0.2000000	6.1800000	0.6111770	24.720000	0.0000000
pair_coeff	10	14	ljlambda	0.2000000	6.2700000	0.6847065	25.080000	0.0000000
pair_coeff	10	15	ljlambda	0.2000000	5.8700000	0.6523535	23.480000	0.0000000
pair_coeff	10	16	ljlambda	0.2000000	5.6800000	0.5670595	22.720000	0.0000000
pair_coeff	10	17	ljlambda	0.2000000	5.9000000	0.5670595	23.600000	0.0000000
pair_coeff	10	18	ljlambda	0.2000000	6.4800000	0.7729415	25.920000	0.0000000
pair_coeff	10	19	ljlambda	0.2000000	6.3200000	0.7214710	25.280000	0.0000000
pair_coeff	10	20	ljlambda	0.2000000	6.0200000	0.6052950	24.080000	0.0000000
pair_coeff	11	11	ljlambda	0.2000000	6.1800000	0.6405890	24.720000	0.0000000
pair_coeff	11	12	ljlambda	0.2000000	6.2700000	0.4714715	25.080000	0.0000000
pair_coeff	11	13	ljlambda	0.2000000	6.1800000	0.6185300	24.720000	0.0000000
pair_coeff	11	14	ljlambda	0.2000000	6.2700000	0.6920595	25.080000	0.0000000
pair_coeff	11	15	ljlambda	0.2000000	5.8700000	0.6597065	23.480000	0.0000000
pair_coeff	11	16	ljlambda	0.2000000	5.6800000	0.5744125	22.720000	0.0000000
pair_coeff	11	17	ljlambda	0.2000000	5.9000000	0.5744125	23.600000	0.0000000
pair_coeff	11	18	ljlambda	0.2000000	6.4800000	0.7802945	25.920000	0.0000000
pair_coeff	11	19	ljlambda	0.2000000	6.3200000	0.7288240	25.280000	0.0000000
pair_coeff	11	20	ljlambda	0.2000000	6.0200000	0.6126480	24.080000	0.0000000
pair_coeff	12	12	ljlambda	0.2000000	6.3600000	0.3023540	25.440000	35.000000
pair_coeff	12	13	ljlambda	0.2000000	6.2700000	0.4494125	25.080000	0.0000000
pair_coeff	12	14	ljlambda	0.2000000	6.3600000	0.5229420	25.440000	0.0000000
pair_coeff	12	15	ljlambda	0.2000000	5.9600000	0.4905890	23.840000	0.0000000
pair_coeff	12	16	ljlambda	0.2000000	5.7700000	0.4052950	23.080000	0.0000000
pair_coeff	12	17	ljlambda	0.2000000	5.9900000	0.4052950	23.960000	0.0000000
pair_coeff	12	18	ljlambda	0.2000000	6.5700000	0.6111770	26.280000	0.0000000
pair_coeff	12	19	ljlambda	0.2000000	6.4100000	0.5597065	25.640000	0.0000000
pair_coeff	12	20	ljlambda	0.2000000	6.1100000	0.4435305	24.440000	0.0000000
pair_coeff	13	13	ljlambda	0.2000000	6.1800000	0.5964710	24.720000	0.0000000
pair_coeff	13	14	ljlambda	0.2000000	6.2700000	0.6700005	25.080000	0.0000000
pair_coeff	13	15	ljlambda	0.2000000	5.8700000	0.6376475	23.480000	0.0000000
pair_coeff	13	16	ljlambda	0.2000000	5.6800000	0.5523535	22.720000	0.0000000
pair_coeff	13	17	ljlambda	0.2000000	5.9000000	0.5523535	23.600000	0.0000000
pair_coeff	13	18	ljlambda	0.2000000	6.4800000	0.7582355	25.920000	0.0000000
pair_coeff	13	19	ljlambda	0.2000000	6.3200000	0.7067650	25.280000	0.0000000
pair_coeff	13	20	ljlambda	0.2000000	6.0200000	0.5905890	24.080000	0.0000000
pair_coeff	14	14	ljlambda	0.2000000	6.3600000	0.7435300	25.440000	0.0000000
pair_coeff	14	15	ljlambda	0.2000000	5.9600000	0.7111770	23.840000	0.0000000
pair_coeff	14	16	ljlambda	0.2000000	5.7700000	0.6258830	23.080000	0.0000000
pair_coeff	14	17	ljlambda	0.2000000	5.9900000	0.6258830	23.960000	0.0000000
pair_coeff	14	18	ljlambda	0.2000000	6.5700000	0.8317650	26.280000	0.0000000
pair_coeff	14	19	ljlambda	0.2000000	6.4100000	0.7802945	25.640000	0.0000000
pair_coeff	14	20	ljlambda	0.2000000	6.1100000	0.6641185	24.440000	0.0000000
pair_coeff	15	15	ljlambda	0.2000000	5.5600000	0.6788240	22.240000	0.0000000
pair_coeff	15	16	ljlambda	0.2000000	5.3700000	0.5935300	21.480000	0.0000000
pair_coeff	15	17	ljlambda	0.2000000	5.5900000	0.5935300	22.360000	0.0000000
pair_coeff	15	18	ljlambda	0.2000000	6.1700000	0.7994120	24.680000	0.0000000
pair_coeff	15	19	ljlambda	0.2000000	6.0100000	0.7479415	24.040000	0.0000000
pair_coeff	15	20	ljlambda	0.2000000	5.7100000	0.6317655	22.840000	0.0000000
pair_coeff	16	16	ljlambda	0.2000000	5.1800000	0.5082360	20.720000	0.0000000
pair_coeff	16	17	ljlambda	0.2000000	5.4000000	0.5082360	21.600000	0.0000000
pair_coeff	16	18	ljlambda	0.2000000	5.9800000	0.7141180	23.920000	0.0000000
pair_coeff	16	19	ljlambda	0.2000000	5.8200000	0.6626475	23.280000	0.0000000
pair_coeff	16	20	ljlambda	0.2000000	5.5200000	0.5464715	22.080000	0.0000000
pair_coeff	17	17	ljlambda	0.2000000	5.6200000	0.5082360	22.480000	0.0000000
pair_coeff	17	18	ljlambda	0.2000000	6.2000000	0.7141180	24.800000	0.0000000
pair_coeff	17	19	ljlambda	0.2000000	6.0400000	0.6626475	24.160000	0.0000000
pair_coeff	17	20	ljlambda	0.2000000	5.7400000	0.5464715	22.960000	0.0000000
pair_coeff	18	18	ljlambda	0.2000000	6.7800000	0.9200000	27.120000	0.0000000
pair_coeff	18	19	ljlambda	0.2000000	6.6200000	0.8685295	26.480000	0.0000000
pair_coeff	18	20	ljlambda	0.2000000	6.3200000	0.7523535	25.280000	0.0000000
pair_coeff	19	19	ljlambda	0.2000000	6.4600000	0.8170590	25.840000	0.0000000
pair_coeff	19	20	ljlambda	0.2000000	6.1600000	0.7008830	24.640000	0.0000000
pair_coeff	20	20	ljlambda	0.2000000	5.8600000	0.5847070	23.440000	0.0000000
pair_coeff	1	21	lj/exclude	0.2000000	6.0000000	3.9100000	35.000000
pair_coeff	2	21	lj/exclude	0.2000000	6.0000000	3.9100000	35.000000
pair_coeff	3	21	lj/exclude	0.2000000	6.0000000	3.9100000	35.000000
pair_coeff	4	21	lj/exclude	0.2000000	6.0000000	3.9100000	35.000000
pair_coeff	5	21	lj/exclude	0.2000000	6.0000000	3.9100000	35.000000
pair_coeff	6	21	lj/exclude	0.2000000	6.0000000	3.9100000	35.000000
pair_coeff	7	21	lj/exclude	0.2000000	6.0000000	3.9100000	35.000000
pair_coeff	8	21	lj/exclude	0.2000000	6.0000000	3.9100000	35.000000
pair_coeff	9	21	lj/exclude	0.2000000	6.0000000	3.9100000	35.000000
pair_coeff	10	21	lj/exclude	0.2000000	6.0000000	3.9100000	35.000000
pair_coeff	11	21	lj/exclude	0.2000000	6.0000000	3.9100000	35.000000
pair_coeff	12	21	lj/exclude	0.2000000	6.0000000	3.9100000	35.000000
pair_coeff	13	21	lj/exclude	0.2000000	6.0000000	3.9100000	35.000000
pair_coeff	14	21	lj/exclude	0.2000000	6.0000000	3.9100000	35.000000
pair_coeff	15	21	lj/exclude	0.2000000	6.0000000	3.9100000	35.000000
pair_coeff	16	21	lj/exclude	0.2000000	6.0000000	3.9100000	35.000000
pair_coeff	17	21	lj/exclude	0.2000000	6.0000000	3.9100000	35.000000
pair_coeff	18	21	lj/exclude	0.2000000	6.0000000	3.9100000	35.000000
pair_coeff	19	21	lj/exclude	0.2000000	6.0000000	3.9100000	35.000000
pair_coeff	20	21	lj/exclude	0.2000000	6.0000000	3.9100000	35.000000
pair_coeff	21	21	lj/exclude	0.2000000	6.0000000	10.000000	35.000000
