#Mass
mass 1 71.080000
mass 2 156.200000
mass 3 114.100000
mass 4 115.100000
mass 5 103.100000
mass 6 128.100000
mass 7 129.100000
mass 8 57.050000
mass 9 137.100000
mass 10 113.200000
mass 11 113.200000
mass 12 128.200000
mass 13 131.200000
mass 14 147.200000
mass 15 97.120000
mass 16 87.080000
mass 17 101.100000
mass 18 186.200000
mass 19 163.200000
mass 20 99.070000

#Pair Coeff
pair_coeff 1 1  0.200000 5.040000 0.602942 15.120000 0.000000
pair_coeff 1 2  0.200000 5.800000 0.580883 17.400000 0.000000
pair_coeff 1 3  0.200000 5.360000 0.595589 16.080000 0.000000
pair_coeff 1 4  0.200000 5.310000 0.448530 15.930000 0.000000
pair_coeff 1 5  0.200000 5.260000 0.625001 15.780000 0.000000
pair_coeff 1 6  0.200000 5.530000 0.580883 16.590000 0.000000
pair_coeff 1 7  0.200000 5.480000 0.301471 16.440000 0.000000
pair_coeff 1 8  0.200000 4.770000 0.588236 14.310000 0.000000
pair_coeff 1 9  0.200000 5.560000 0.683825 16.680000 0.000000
pair_coeff 1 10  0.200000 5.610000 0.654413 16.830000 0.000000
pair_coeff 1 11  0.200000 5.610000 0.661766 16.830000 0.000000
pair_coeff 1 12  0.200000 5.700000 0.492648 17.100000 0.000000
pair_coeff 1 13  0.200000 5.610000 0.639706 16.830000 0.000000
pair_coeff 1 14  0.200000 5.700000 0.713236 17.100000 0.000000
pair_coeff 1 15  0.200000 5.300000 0.680883 15.900000 0.000000
pair_coeff 1 16  0.200000 5.110000 0.595589 15.330000 0.000000
pair_coeff 1 17  0.200000 5.330000 0.595589 15.990000 0.000000
pair_coeff 1 18  0.200000 5.910000 0.801471 17.730000 0.000000
pair_coeff 1 19  0.200000 5.750000 0.750001 17.250000 0.000000
pair_coeff 1 20  0.200000 5.450000 0.633825 16.350000 0.000000
pair_coeff 2 2  0.200000 6.560000 0.558824 19.680000 0.000000
pair_coeff 2 3  0.200000 6.120000 0.573530 18.360000 0.000000
pair_coeff 2 4  0.200000 6.070000 0.426472 18.210000 0.000000
pair_coeff 2 5  0.200000 6.020000 0.602942 18.060000 0.000000
pair_coeff 2 6  0.200000 6.290000 0.558824 18.870000 0.000000
pair_coeff 2 7  0.200000 6.240000 0.279412 18.720000 0.000000
pair_coeff 2 8  0.200000 5.530000 0.566177 16.590000 0.000000
pair_coeff 2 9  0.200000 6.320000 0.661766 18.960000 0.000000
pair_coeff 2 10  0.200000 6.370000 0.632354 19.110000 0.000000
pair_coeff 2 11  0.200000 6.370000 0.639706 19.110000 0.000000
pair_coeff 2 12  0.200000 6.460000 0.470589 19.380000 0.000000
pair_coeff 2 13  0.200000 6.370000 0.617648 19.110000 0.000000
pair_coeff 2 14  0.200000 6.460000 0.691177 19.380000 0.000000
pair_coeff 2 15  0.200000 6.060000 0.658824 18.180000 0.000000
pair_coeff 2 16  0.200000 5.870000 0.573530 17.610000 0.000000
pair_coeff 2 17  0.200000 6.090000 0.573530 18.270000 0.000000
pair_coeff 2 18  0.200000 6.670000 0.779412 20.010000 0.000000
pair_coeff 2 19  0.200000 6.510000 0.727942 19.530000 0.000000
pair_coeff 2 20  0.200000 6.210000 0.611765 18.630000 0.000000
pair_coeff 3 3  0.200000 5.680000 0.588236 17.040000 0.000000
pair_coeff 3 4  0.200000 5.630000 0.441178 16.890000 0.000000
pair_coeff 3 5  0.200000 5.580000 0.617648 16.740000 0.000000
pair_coeff 3 6  0.200000 5.850000 0.573530 17.550000 0.000000
pair_coeff 3 7  0.200000 5.800000 0.294118 17.400000 0.000000
pair_coeff 3 8  0.200000 5.090000 0.580883 15.270000 0.000000
pair_coeff 3 9  0.200000 5.880000 0.676472 17.640000 0.000000
pair_coeff 3 10  0.200000 5.930000 0.647060 17.790000 0.000000
pair_coeff 3 11  0.200000 5.930000 0.654413 17.790000 0.000000
pair_coeff 3 12  0.200000 6.020000 0.485295 18.060000 0.000000
pair_coeff 3 13  0.200000 5.930000 0.632354 17.790000 0.000000
pair_coeff 3 14  0.200000 6.020000 0.705883 18.060000 0.000000
pair_coeff 3 15  0.200000 5.620000 0.673530 16.860000 0.000000
pair_coeff 3 16  0.200000 5.430000 0.588236 16.290000 0.000000
pair_coeff 3 17  0.200000 5.650000 0.588236 16.950000 0.000000
pair_coeff 3 18  0.200000 6.230000 0.794118 18.690000 0.000000
pair_coeff 3 19  0.200000 6.070000 0.742648 18.210000 0.000000
pair_coeff 3 20  0.200000 5.770000 0.626472 17.310000 0.000000
pair_coeff 4 4  0.200000 5.580000 0.294119 16.740000 0.000000
pair_coeff 4 5  0.200000 5.530000 0.470589 16.590000 0.000000
pair_coeff 4 6  0.200000 5.800000 0.426472 17.400000 0.000000
pair_coeff 4 7  0.200000 5.750000 0.147060 17.250000 0.000000
pair_coeff 4 8  0.200000 5.040000 0.433825 15.120000 0.000000
pair_coeff 4 9  0.200000 5.830000 0.529413 17.490000 0.000000
pair_coeff 4 10  0.200000 5.880000 0.500001 17.640000 0.000000
pair_coeff 4 11  0.200000 5.880000 0.507354 17.640000 0.000000
pair_coeff 4 12  0.200000 5.970000 0.338237 17.910000 0.000000
pair_coeff 4 13  0.200000 5.880000 0.485295 17.640000 0.000000
pair_coeff 4 14  0.200000 5.970000 0.558825 17.910000 0.000000
pair_coeff 4 15  0.200000 5.570000 0.526471 16.710000 0.000000
pair_coeff 4 16  0.200000 5.380000 0.441178 16.140000 0.000000
pair_coeff 4 17  0.200000 5.600000 0.441178 16.800000 0.000000
pair_coeff 4 18  0.200000 6.180000 0.647060 18.540000 0.000000
pair_coeff 4 19  0.200000 6.020000 0.595589 18.060000 0.000000
pair_coeff 4 20  0.200000 5.720000 0.479413 17.160000 0.000000
pair_coeff 5 5  0.200000 5.480000 0.647060 16.440000 0.000000
pair_coeff 5 6  0.200000 5.750000 0.602942 17.250000 0.000000
pair_coeff 5 7  0.200000 5.700000 0.323530 17.100000 0.000000
pair_coeff 5 8  0.200000 4.990000 0.610295 14.970000 0.000000
pair_coeff 5 9  0.200000 5.780000 0.705883 17.340000 0.000000
pair_coeff 5 10  0.200000 5.830000 0.676472 17.490000 0.000000
pair_coeff 5 11  0.200000 5.830000 0.683825 17.490000 0.000000
pair_coeff 5 12  0.200000 5.920000 0.514707 17.760000 0.000000
pair_coeff 5 13  0.200000 5.830000 0.661766 17.490000 0.000000
pair_coeff 5 14  0.200000 5.920000 0.735295 17.760000 0.000000
pair_coeff 5 15  0.200000 5.520000 0.702942 16.560000 0.000000
pair_coeff 5 16  0.200000 5.330000 0.617648 15.990000 0.000000
pair_coeff 5 17  0.200000 5.550000 0.617648 16.650000 0.000000
pair_coeff 5 18  0.200000 6.130000 0.823530 18.390000 0.000000
pair_coeff 5 19  0.200000 5.970000 0.772060 17.910000 0.000000
pair_coeff 5 20  0.200000 5.670000 0.655884 17.010000 0.000000
pair_coeff 6 6  0.200000 6.020000 0.558824 18.060000 0.000000
pair_coeff 6 7  0.200000 5.970000 0.279412 17.910000 0.000000
pair_coeff 6 8  0.200000 5.260000 0.566177 15.780000 0.000000
pair_coeff 6 9  0.200000 6.050000 0.661766 18.150000 0.000000
pair_coeff 6 10  0.200000 6.100000 0.632354 18.300000 0.000000
pair_coeff 6 11  0.200000 6.100000 0.639706 18.300000 0.000000
pair_coeff 6 12  0.200000 6.190000 0.470589 18.570000 0.000000
pair_coeff 6 13  0.200000 6.100000 0.617648 18.300000 0.000000
pair_coeff 6 14  0.200000 6.190000 0.691177 18.570000 0.000000
pair_coeff 6 15  0.200000 5.790000 0.658824 17.370000 0.000000
pair_coeff 6 16  0.200000 5.600000 0.573530 16.800000 0.000000
pair_coeff 6 17  0.200000 5.820000 0.573530 17.460000 0.000000
pair_coeff 6 18  0.200000 6.400000 0.779412 19.200000 0.000000
pair_coeff 6 19  0.200000 6.240000 0.727942 18.720000 0.000000
pair_coeff 6 20  0.200000 5.940000 0.611765 17.820000 0.000000
pair_coeff 7 7  0.200000 5.920000 0.000000 17.760000 0.000000
pair_coeff 7 8  0.200000 5.210000 0.286765 15.630000 0.000000
pair_coeff 7 9  0.200000 6.000000 0.382354 18.000000 0.000000
pair_coeff 7 10  0.200000 6.050000 0.352942 18.150000 0.000000
pair_coeff 7 11  0.200000 6.050000 0.360295 18.150000 0.000000
pair_coeff 7 12  0.200000 6.140000 0.191177 18.420000 0.000000
pair_coeff 7 13  0.200000 6.050000 0.338236 18.150000 0.000000
pair_coeff 7 14  0.200000 6.140000 0.411765 18.420000 0.000000
pair_coeff 7 15  0.200000 5.740000 0.379412 17.220000 0.000000
pair_coeff 7 16  0.200000 5.550000 0.294118 16.650000 0.000000
pair_coeff 7 17  0.200000 5.770000 0.294118 17.310000 0.000000
pair_coeff 7 18  0.200000 6.350000 0.500000 19.050000 0.000000
pair_coeff 7 19  0.200000 6.190000 0.448530 18.570000 0.000000
pair_coeff 7 20  0.200000 5.890000 0.332354 17.670000 0.000000
pair_coeff 8 8  0.200000 4.500000 0.573530 13.500000 0.000000
pair_coeff 8 9  0.200000 5.290000 0.669118 15.870000 0.000000
pair_coeff 8 10  0.200000 5.340000 0.639706 16.020000 0.000000
pair_coeff 8 11  0.200000 5.340000 0.647060 16.020000 0.000000
pair_coeff 8 12  0.200000 5.430000 0.477942 16.290000 0.000000
pair_coeff 8 13  0.200000 5.340000 0.625001 16.020000 0.000000
pair_coeff 8 14  0.200000 5.430000 0.698530 16.290000 0.000000
pair_coeff 8 15  0.200000 5.030000 0.666177 15.090000 0.000000
pair_coeff 8 16  0.200000 4.840000 0.580883 14.520000 0.000000
pair_coeff 8 17  0.200000 5.060000 0.580883 15.180000 0.000000
pair_coeff 8 18  0.200000 5.640000 0.786765 16.920000 0.000000
pair_coeff 8 19  0.200000 5.480000 0.735294 16.440000 0.000000
pair_coeff 8 20  0.200000 5.180000 0.619119 15.540000 0.000000
pair_coeff 9 9  0.200000 6.080000 0.764707 18.240000 0.000000
pair_coeff 9 10  0.200000 6.130000 0.735295 18.390000 0.000000
pair_coeff 9 11  0.200000 6.130000 0.742648 18.390000 0.000000
pair_coeff 9 12  0.200000 6.220000 0.573531 18.660000 0.000000
pair_coeff 9 13  0.200000 6.130000 0.720589 18.390000 0.000000
pair_coeff 9 14  0.200000 6.220000 0.794118 18.660000 0.000000
pair_coeff 9 15  0.200000 5.820000 0.761766 17.460000 0.000000
pair_coeff 9 16  0.200000 5.630000 0.676472 16.890000 0.000000
pair_coeff 9 17  0.200000 5.850000 0.676472 17.550000 0.000000
pair_coeff 9 18  0.200000 6.430000 0.882354 19.290000 0.000000
pair_coeff 9 19  0.200000 6.270000 0.830883 18.810000 0.000000
pair_coeff 9 20  0.200000 5.970000 0.714707 17.910000 0.000000
pair_coeff 10 10  0.200000 6.180000 0.705883 18.540000 0.000000
pair_coeff 10 11  0.200000 6.180000 0.713236 18.540000 0.000000
pair_coeff 10 12  0.200000 6.270000 0.544119 18.810000 0.000000
pair_coeff 10 13  0.200000 6.180000 0.691177 18.540000 0.000000
pair_coeff 10 14  0.200000 6.270000 0.764706 18.810000 0.000000
pair_coeff 10 15  0.200000 5.870000 0.732354 17.610000 0.000000
pair_coeff 10 16  0.200000 5.680000 0.647060 17.040000 0.000000
pair_coeff 10 17  0.200000 5.900000 0.647060 17.700000 0.000000
pair_coeff 10 18  0.200000 6.480000 0.852942 19.440000 0.000000
pair_coeff 10 19  0.200000 6.320000 0.801471 18.960000 0.000000
pair_coeff 10 20  0.200000 6.020000 0.685295 18.060000 0.000000
pair_coeff 11 11  0.200000 6.180000 0.720589 18.540000 0.000000
pair_coeff 11 12  0.200000 6.270000 0.551472 18.810000 0.000000
pair_coeff 11 13  0.200000 6.180000 0.698530 18.540000 0.000000
pair_coeff 11 14  0.200000 6.270000 0.772060 18.810000 0.000000
pair_coeff 11 15  0.200000 5.870000 0.739707 17.610000 0.000000
pair_coeff 11 16  0.200000 5.680000 0.654413 17.040000 0.000000
pair_coeff 11 17  0.200000 5.900000 0.654413 17.700000 0.000000
pair_coeff 11 18  0.200000 6.480000 0.860294 19.440000 0.000000
pair_coeff 11 19  0.200000 6.320000 0.808824 18.960000 0.000000
pair_coeff 11 20  0.200000 6.020000 0.692648 18.060000 0.000000
pair_coeff 12 12  0.200000 6.360000 0.382354 19.080000 0.000000
pair_coeff 12 13  0.200000 6.270000 0.529413 18.810000 0.000000
pair_coeff 12 14  0.200000 6.360000 0.602942 19.080000 0.000000
pair_coeff 12 15  0.200000 5.960000 0.570589 17.880000 0.000000
pair_coeff 12 16  0.200000 5.770000 0.485295 17.310000 0.000000
pair_coeff 12 17  0.200000 5.990000 0.485295 17.970000 0.000000
pair_coeff 12 18  0.200000 6.570000 0.691177 19.710000 0.000000
pair_coeff 12 19  0.200000 6.410000 0.639707 19.230000 0.000000
pair_coeff 12 20  0.200000 6.110000 0.523531 18.330000 0.000000
pair_coeff 13 13  0.200000 6.180000 0.676471 18.540000 0.000000
pair_coeff 13 14  0.200000 6.270000 0.750001 18.810000 0.000000
pair_coeff 13 15  0.200000 5.870000 0.717647 17.610000 0.000000
pair_coeff 13 16  0.200000 5.680000 0.632354 17.040000 0.000000
pair_coeff 13 17  0.200000 5.900000 0.632354 17.700000 0.000000
pair_coeff 13 18  0.200000 6.480000 0.838236 19.440000 0.000000
pair_coeff 13 19  0.200000 6.320000 0.786765 18.960000 0.000000
pair_coeff 13 20  0.200000 6.020000 0.670589 18.060000 0.000000
pair_coeff 14 14  0.200000 6.360000 0.823530 19.080000 0.000000
pair_coeff 14 15  0.200000 5.960000 0.791177 17.880000 0.000000
pair_coeff 14 16  0.200000 5.770000 0.705883 17.310000 0.000000
pair_coeff 14 17  0.200000 5.990000 0.705883 17.970000 0.000000
pair_coeff 14 18  0.200000 6.570000 0.911765 19.710000 0.000000
pair_coeff 14 19  0.200000 6.410000 0.860294 19.230000 0.000000
pair_coeff 14 20  0.200000 6.110000 0.744119 18.330000 0.000000
pair_coeff 15 15  0.200000 5.560000 0.758824 16.680000 0.000000
pair_coeff 15 16  0.200000 5.370000 0.673530 16.110000 0.000000
pair_coeff 15 17  0.200000 5.590000 0.673530 16.770000 0.000000
pair_coeff 15 18  0.200000 6.170000 0.879412 18.510000 0.000000
pair_coeff 15 19  0.200000 6.010000 0.827942 18.030000 0.000000
pair_coeff 15 20  0.200000 5.710000 0.711766 17.130000 0.000000
pair_coeff 16 16  0.200000 5.180000 0.588236 15.540000 0.000000
pair_coeff 16 17  0.200000 5.400000 0.588236 16.200000 0.000000
pair_coeff 16 18  0.200000 5.980000 0.794118 17.940000 0.000000
pair_coeff 16 19  0.200000 5.820000 0.742648 17.460000 0.000000
pair_coeff 16 20  0.200000 5.520000 0.626472 16.560000 0.000000
pair_coeff 17 17  0.200000 5.620000 0.588236 16.860000 0.000000
pair_coeff 17 18  0.200000 6.200000 0.794118 18.600000 0.000000
pair_coeff 17 19  0.200000 6.040000 0.742648 18.120000 0.000000
pair_coeff 17 20  0.200000 5.740000 0.626472 17.220000 0.000000
pair_coeff 18 18  0.200000 6.780000 1.000000 20.340000 0.000000
pair_coeff 18 19  0.200000 6.620000 0.948530 19.860000 0.000000
pair_coeff 18 20  0.200000 6.320000 0.832353 18.960000 0.000000
pair_coeff 19 19  0.200000 6.460000 0.897059 19.380000 0.000000
pair_coeff 19 20  0.200000 6.160000 0.780883 18.480000 0.000000
pair_coeff 20 20  0.200000 5.860000 0.664707 17.580000 0.000000
